p cnf 19 21
-1 16 17 0 
-1 16 18 0 
-2 4 19 0 
-3 7 12 18 0 
-4 2 -5 9 -6 11 17 0 
-7 3 12 18 0 
-8 10 19 0 
-9 5 18 0 
-7 3 12 19 0 
-10 8 17 0 
-9 5 19 0 
-11 6 19 0 
-12 3 7 18 0 
-7 3 12 -13 19 0 
-12 3 7 19 0 
-14 -15 19 0 
-1 16 19 0 
-6 11 19 0 
-16 1 18 0 
-16 1 19 0 
-2 4 18 0 
